[1, 2, 3, 4, 5, 6, 7, 8, 9, 10, 11, 12, 13, 14, 15, 16, 17, 18, 19, 20, 21, 22, 23, 24, 25, 26, 27, 28, 29, 30, 159, 33, 33, 34, 35, 35, 36, 38, 39, 40, 44, 44, 45, 42, 45, 46, 49, 50, 48, 47, 47, 73, 75, 57, 55, 56, 57, 58, 59, 60, 61, 64, 65, 64, 63, 60, 117, 126, 100, 73, 71, 72, 73, 75, 76, 74, 76, 77, 81, 81, 80, 81, 83, 85, 84, 84, 83, 89, 89, 90, 91, 94, 95, 96, 97, 95, 96, 98, 99, 104, 102, 101, 101, 102, 103, 106, 104, 106, 109, 113, 116, 115, 114, 115, 115, 117, 118, 118, 119, 119, 122, 123, 122, 124, 125, 126, 124, 125, 130, 130, 131, 136, 138, 139, 138, 139, 140, 137, 138, 139, 139, 142, 143, 147, 146, 146, 148, 147, 148, 147, 141, 150, 149, 146, 144, 143, 151, 158, 159, 160, 162, 163, 163, 164, 166, 165, 166, 168, 170, 172, 171, 172, 173, 174, 175, 178, 179, 179, 178, 180, 181, 180, 183, 184, 185, 189, 189, 190, 188, 189, 190, 192, 193, 197, 195, 196, 196, 200, 200, 201, 199, 203, 204, 204, 205, 206, 207, 208, 204, 205, 207, 209, 213, 216, 217, 217, 218, 216, 219, 219, 220, 222, 222, 221, 215, 227, 226, 233, 229, 232, 235, 234, 233, 232, 231, 236, 237, 238, 239, 240, 238, 239, 246, 245, 244, 246, 247, 247, 249, 249, 249, 254, 253, 255, 255, 256, 258, 257, 259, 261, 260, 262, 263, 262, 268, 267, 267, 269, 268, 270, 270, 271, 272, 273, 273, 277, 276, 279, 278, 63]
[1, 2, 3, 4, 5, 6, 7, 8, 9, 10, 11, 12, 13, 14, 15, 16, 17, 18, 19, 20, 21, 22, 23, 24, 25, 26, 27, 28, 29, 49, 108, 182, 220, 221, 221, 257]
